<instance format="XCSP3" type="CSP">
  <variables>
    <var id="x0"> 3 9 14 </var>
    <var id="x1"> 3 7 9 10 </var>
    <var id="x2"> 0 9 10 </var>
    <var id="x3"> 0 7 9 10 14 </var>
    <var id="x4"> 1 7 10 </var>
    <var id="x5"> 0 3 6 9 10 </var>
    <var id="x6"> 0 3 7 10 14 </var>
    <var id="x7"> 0 3 10 </var>
    <var id="x8"> 4 11..14 </var>
    <var id="x9"> 1 4 11..13 </var>
    <var id="x10"> 10..12 </var>
    <var as="x9" id="x11"/>
    <var id="x12"> 1 10..13 </var>
    <var id="x13"> 1 4 10 12 </var>
    <var id="x14"> 0 10 13 </var>
    <var id="x15"> 0 4 10 14 </var>
    <var id="x16"> 4 12 16 </var>
    <var id="x17"> 4 12 16 </var>
    <var id="x18"> 0 2 10 12 16 </var>
    <var id="x19"> 0 2 7 10 12 </var>
    <var id="x20"> 0 4 10 12 </var>
    <var id="x21"> 0 4 7 10 </var>
    <var id="x22"> 0 2 4 10 16 </var>
    <var id="x23"> 4 12 15 17 </var>
    <var id="x24"> 8 14 17 </var>
    <var id="x25"> 10 12 17 </var>
    <var id="x26"> 10 12 14 </var>
    <var id="x27"> 12 15 </var>
    <var id="x28"> 10..12 </var>
    <var id="x29"> 4 10..12 17 </var>
    <var id="x30"> 4 8 10 15 </var>
    <var id="x31"> 3 4 9 13 17 </var>
    <var id="x32"> 3 4 9 12 13 </var>
    <var id="x33"> 3 8..10 12 </var>
    <var id="x34"> 3 9 12 </var>
    <var id="x35"> 3 4 10 12 17 </var>
    <var id="x36"> 4 8 </var>
    <var id="x37"> 4 10 12 17 </var>
    <var id="x38"> 3 4 8 10 </var>
    <var id="x39"> 3 4 11 </var>
    <var id="x40"> 1 3 4 12 15 </var>
    <var id="x41"> 3 8 11 12 </var>
    <var id="x42"> 2 12 </var>
    <var id="x43"> 1 3 12 15 </var>
    <var id="x44"> 3 4 11 12 </var>
    <var id="x45"> 1 2 4 8 15 </var>
    <var id="x46"> 1 2 4 12 </var>
    <var id="x47"> 3 4 9 13 16 </var>
    <var id="x48"> 1 4 13 </var>
    <var id="x49"> 1 5 9 </var>
    <var id="x50"> 3..5 9 13 </var>
    <var id="x51"> 3 9 13 </var>
    <var id="x52"> 3..5 </var>
    <var id="x53"> 3 4 16 </var>
    <var id="x54"> 3 4 9 15 </var>
    <var id="x55"> 3 6 9 15 </var>
    <var id="x56"> 4 11 15 </var>
    <var id="x57"> 2 3 10 11 </var>
    <var id="x58"> 2 4 6 15 </var>
    <var id="x59"> 2 4 10 </var>
    <var id="x60"> 3 4 9 10 </var>
    <var id="x61"> 2..4 10 15 </var>
    <var id="x62"> 1 3 4 9 12 17 </var>
    <var id="x63"> 1 9 17 </var>
    <var id="x64"> 3 7 9 12 </var>
    <var id="x65"> 0 7 9 12 </var>
    <var id="x66"> 1 3 7 9 12 </var>
    <var id="x67"> 1 4 12 17 </var>
    <var id="x68"> 1 3 7 12 </var>
    <var id="x69"> 0 3 4 7 </var>
    <var id="x70"> 4 9 13 17 </var>
    <var id="x71"> 4 9 12 13 </var>
    <var id="x72"> 4 12 13 17 </var>
    <var id="x73"> 8 9 17 </var>
    <var id="x74"> 2 10 12 13 </var>
    <var as="x37" id="x75"/>
    <var id="x76"> 2 4 10 12 17 </var>
    <var id="x77"> 4 9 10 12 13 </var>
    <var id="x78"> 4 9 </var>
    <var id="x79"> 4 7 </var>
    <var id="x80"> 0 2 9 10 </var>
    <var id="x81"> 5..7 9 </var>
    <var id="x82"> 4 </var>
    <var id="x83"> 4 6 10 </var>
    <var id="x84"> 0 2 4 6 </var>
    <var id="x85"> 0 2 6 9 10 </var>
    <var id="x86"> 9 11 17 </var>
    <var id="x87"> 9 11 12 </var>
    <var id="x88"> 9 12 17 </var>
    <var id="x89"> 5 8 9 17 </var>
    <var id="x90"> 8 11 12 17 </var>
    <var id="x91"> 5 9 10 12 </var>
    <var id="x92"> 2 8..10 </var>
    <var id="x93"> 5 8 10 </var>
    <var id="x94"> 3 9 13 </var>
    <var id="x95"> 1 5 8 9 14 </var>
    <var id="x96"> 2 5 9 14 </var>
    <var id="x97"> 1 3 5 9 </var>
    <var id="x98"> 1..3 13 </var>
    <var id="x99"> 3 </var>
    <var id="x100"> 1 2 8 14 </var>
    <var id="x101"> 3 5 9 13 </var>
    <var id="x102"> 0 3 13 16 </var>
    <var id="x103"> 3 5 7 12 </var>
    <var id="x104"> 12 13 </var>
    <var id="x105"> 3 7 12 13 </var>
    <var id="x106"> 0 </var>
    <var id="x107"> 0 3 5 12 13 </var>
    <var id="x108"> 0 3 13 </var>
    <var id="x109"> 3 12 15 17 </var>
    <var id="x110"> 7 11..13 17 </var>
    <var id="x111"> 12 13 17 </var>
    <var id="x112"> 3 7 11..13 </var>
    <var id="x113"> 6 15 </var>
    <var id="x114"> 3 6 13 </var>
    <var id="x115"> 3 7 </var>
    <var id="x116"> 3 15 </var>
    <var id="x117"> 0 9 11 16 17 </var>
    <var id="x118"> 9 11 16 </var>
    <var id="x119"> 1 11 17 </var>
    <var id="x120"> 1 6 9 17 </var>
    <var id="x121"> 9..11 </var>
    <var id="x122"> 0 9 10 </var>
    <var id="x123"> 1 11 17 </var>
    <var id="x124"> 0 10 16 </var>
    <var id="x125"> 3 5 7 8 12 </var>
    <var id="x126"> 0 12 16 </var>
    <var id="x127"> 0 5 7 12 14 </var>
    <var id="x128"> 3 12 </var>
    <var id="x129"> 0 8 14 </var>
    <var id="x130"> 5 7 12 </var>
    <var id="x131"> 0 3 5 12 </var>
    <var id="x132"> 0 3 8 </var>
    <var id="x133"> 3 4 13 17 </var>
    <var id="x134"> 1 4 12 13 17 </var>
    <var id="x135"> 12 13 17 </var>
    <var id="x136"> 5 12 </var>
    <var id="x137"> 1 3 5 12 15 </var>
    <var id="x138"> 1 4 12 13 15 17 </var>
    <var id="x139"> 1 4 5 12 17 </var>
    <var id="x140"> 3 4 15 </var>
  </variables>
  <constraints>
    <group>
      <allDifferent> %... </allDifferent>
      <args> x0 x1 x2 x3 x4 x5 x6 x7 </args>
      <args> x8 x9 x10 x11 x12 x13 x14 x15 </args>
      <args> x16 x17 x18 x19 x20 x21 x22 </args>
      <args> x23 x24 x25 x26 x27 x28 x29 x30 </args>
      <args> x31 x32 x33 x34 x35 x36 x37 x38 </args>
      <args> x39 x40 x41 x42 x43 x44 x45 x46 </args>
      <args> x47 x48 x49 x50 x51 x52 x53 </args>
      <args> x54 x55 x56 x57 x58 x59 x60 x61 </args>
      <args> x62 x63 x64 x65 x66 x67 x68 x69 </args>
      <args> x70 x71 x72 x73 x74 x75 x76 x77 </args>
      <args> x78 x79 x80 x81 x82 x83 x84 x85 </args>
      <args> x86 x87 x88 x89 x90 x91 x92 x93 </args>
      <args> x94 x95 x96 x97 x98 x99 x100 x101 </args>
      <args> x102 x103 x104 x105 x106 x107 x108 </args>
      <args> x109 x110 x111 x112 x113 x114 x115 x116 </args>
      <args> x117 x118 x119 x120 x121 x122 x123 x124 </args>
      <args> x125 x126 x127 x128 x129 x130 x131 x132 </args>
      <args> x133 x134 x135 x136 x137 x138 x139 x140 </args>
      <args> x31 x39 x70 x86 x94 x102 x117 x133 </args>
      <args> x0 x8 x16 x32 x47 x71 x87 x118 </args>
      <args> x17 x23 x40 x54 x62 x78 x88 x109 </args>
      <args> x9 x48 x72 x79 x110 x119 x134 </args>
      <args> x24 x49 x63 x73 x89 x95 x120 </args>
      <args> x1 x10 x33 x41 x64 x103 x121 x125 </args>
      <args> x2 x18 x25 x42 x80 x111 x126 x135 </args>
      <args> x3 x19 x26 x65 x96 x122 x127 x136 </args>
      <args> x27 x34 x43 x55 x66 x81 x97 x137 </args>
      <args> x11 x56 x67 x82 x90 x104 x123 x138 </args>
      <args> x12 x28 x57 x68 x74 x98 x105 x112 </args>
      <args> x29 x35 x44 x75 x83 x99 x128 </args>
      <args> x36 x45 x58 x84 x100 x106 x113 x129 </args>
      <args> x4 x13 x37 x46 x59 x76 x130 x139 </args>
      <args> x20 x50 x60 x77 x91 x101 x107 x131 </args>
      <args> x5 x14 x51 x85 x92 x108 x114 x132 </args>
      <args> x6 x15 x21 x38 x52 x69 x93 x115 </args>
      <args> x7 x22 x30 x53 x61 x116 x124 x140 </args>
    </group>
  </constraints>
</instance>

